p tw 100 16501 2 
1 3 
1 4 
1 5 
1 6 
1 7 
1 8 
1 9 
1 10 
1 11 
1 12 
1 13 
1 14 
1 15 
1 16 
1 17 
1 18 
1 19 
1 20 
1 21 
1 22 
1 23 
1 31 
1 35 
1 46 
1 61 
1 66 
1 76 
1 80 
1 85 
1 86 
1 87 
1 88 
2 3 
2 4 
2 5 
2 6 
2 7 
2 8 
2 9 
2 10 
2 11 
2 12 
2 13 
2 17 
2 24 
2 25 
2 26 
2 27 
2 28 
2 29 
2 30 
2 31 
2 32 
2 33 
2 37 
2 45 
2 51 
2 58 
2 65 
2 66 
2 67 
2 68 
2 69 
2 70 
3 4 
3 5 
3 6 
3 7 
3 8 
3 9 
3 10 
3 11 
3 12 
3 14 
3 22 
3 24 
3 29 
3 34 
3 35 
3 36 
3 37 
3 38 
3 39 
3 40 
3 41 
3 42 
3 49 
3 57 
3 61 
3 65 
3 83 
3 89 
3 92 
3 98 
3 100 
4 5 
4 6 
4 7 
4 8 
4 9 
4 10 
4 11 
4 12 
4 15 
4 23 
4 25 
4 27 
4 34 
4 38 
4 43 
4 44 
4 45 
4 46 
4 47 
4 48 
4 49 
4 50 
4 55 
4 69 
4 79 
4 82 
4 85 
4 91 
4 99 
4 100 
5 6 
5 7 
5 8 
5 9 
5 10 
5 11 
5 12 
5 16 
5 19 
5 25 
5 26 
5 35 
5 42 
5 43 
5 51 
5 52 
5 53 
5 54 
5 55 
5 56 
5 57 
5 64 
5 66 
5 72 
5 83 
5 91 
5 93 
5 95 
5 96 
6 7 
6 8 
6 9 
6 10 
6 11 
6 12 
6 16 
6 18 
6 27 
6 33 
6 36 
6 40 
6 44 
6 47 
6 57 
6 58 
6 59 
6 60 
6 61 
6 62 
6 63 
6 64 
6 69 
6 75 
6 87 
6 93 
6 94 
6 97 
7 8 
7 9 
7 10 
7 11 
7 12 
7 18 
7 20 
7 28 
7 30 
7 37 
7 38 
7 43 
7 46 
7 52 
7 59 
7 60 
7 65 
7 71 
7 72 
7 73 
7 74 
7 75 
7 80 
7 81 
7 82 
7 83 
7 84 
8 9 
8 10 
8 11 
8 12 
8 19 
8 20 
8 26 
8 29 
8 36 
8 42 
8 45 
8 50 
8 53 
8 63 
8 67 
8 71 
8 73 
8 75 
8 76 
8 77 
8 78 
8 79 
8 88 
8 94 
8 98 
8 99 
9 10 
9 11 
9 12 
9 14 
9 21 
9 30 
9 33 
9 39 
9 44 
9 47 
9 52 
9 54 
9 62 
9 67 
9 70 
9 72 
9 77 
9 78 
9 84 
9 85 
9 88 
9 89 
9 90 
9 96 
9 100 
10 11 
10 12 
10 13 
10 15 
10 24 
10 40 
10 48 
10 51 
10 53 
10 60 
10 62 
10 70 
10 73 
10 74 
10 76 
10 81 
10 86 
10 89 
10 90 
10 91 
10 92 
10 95 
10 97 
10 99 
11 12 
11 21 
11 22 
11 28 
11 32 
11 39 
11 41 
11 48 
11 50 
11 55 
11 56 
11 58 
11 63 
11 68 
11 74 
11 78 
11 79 
11 80 
11 84 
11 87 
11 92 
11 93 
11 95 
12 17 
12 23 
12 31 
12 32 
12 34 
12 41 
12 49 
12 54 
12 56 
12 59 
12 64 
12 68 
12 71 
12 77 
12 81 
12 82 
12 86 
12 90 
12 94 
12 96 
12 97 
12 98 
13 14 
13 15 
13 16 
13 17 
13 18 
13 19 
13 20 
13 21 
13 22 
13 23 
13 24 
13 25 
13 26 
13 27 
13 28 
13 29 
13 30 
13 31 
13 32 
13 33 
13 40 
13 48 
13 51 
13 62 
13 73 
13 76 
13 81 
13 90 
13 91 
13 92 
14 15 
14 16 
14 17 
14 18 
14 19 
14 20 
14 21 
14 22 
14 23 
14 24 
14 33 
14 34 
14 35 
14 36 
14 37 
14 38 
14 39 
14 40 
14 41 
14 42 
14 44 
14 52 
14 70 
14 78 
14 84 
14 88 
14 90 
14 96 
14 100 
15 16 
15 17 
15 18 
15 19 
15 20 
15 21 
15 22 
15 23 
15 24 
15 25 
15 34 
15 43 
15 44 
15 45 
15 46 
15 47 
15 48 
15 49 
15 50 
15 53 
15 60 
15 70 
15 74 
15 86 
15 89 
15 95 
15 97 
15 99 
16 17 
16 18 
16 19 
16 20 
16 21 
16 22 
16 23 
16 26 
16 27 
16 35 
16 36 
16 43 
16 44 
16 51 
16 52 
16 53 
16 54 
16 55 
16 56 
16 57 
16 58 
16 59 
16 60 
16 61 
16 62 
16 63 
16 64 
17 18 
17 19 
17 20 
17 21 
17 22 
17 23 
17 32 
17 37 
17 41 
17 45 
17 49 
17 51 
17 54 
17 58 
17 64 
17 65 
17 66 
17 67 
17 68 
17 69 
17 70 
17 71 
17 82 
17 86 
17 90 
17 94 
18 19 
18 20 
18 21 
18 22 
18 23 
18 28 
18 33 
18 38 
18 40 
18 46 
18 47 
18 52 
18 57 
18 59 
18 65 
18 69 
18 71 
18 72 
18 73 
18 74 
18 75 
18 87 
18 93 
18 94 
18 97 
19 20 
19 21 
19 22 
19 23 
19 25 
19 29 
19 36 
19 42 
19 45 
19 53 
19 64 
19 66 
19 71 
19 72 
19 75 
19 76 
19 77 
19 78 
19 79 
19 83 
19 91 
19 93 
19 95 
19 96 
20 21 
20 22 
20 23 
20 26 
20 30 
20 37 
20 42 
20 43 
20 50 
20 60 
20 63 
20 67 
20 73 
20 75 
20 80 
20 81 
20 82 
20 83 
20 84 
20 88 
20 94 
20 98 
20 99 
21 22 
21 23 
21 28 
21 30 
21 39 
21 41 
21 47 
21 50 
21 54 
21 56 
21 58 
21 62 
21 67 
21 72 
21 77 
21 79 
21 84 
21 85 
21 87 
21 89 
21 92 
21 95 
22 23 
22 29 
22 32 
22 39 
22 48 
22 49 
22 55 
22 57 
22 61 
22 63 
22 65 
22 68 
22 74 
22 78 
22 80 
22 83 
22 89 
22 92 
22 93 
22 98 
22 100 
23 27 
23 31 
23 34 
23 38 
23 55 
23 56 
23 59 
23 68 
23 69 
23 77 
23 79 
23 81 
23 82 
23 85 
23 91 
23 96 
23 97 
23 98 
23 99 
23 100 
24 25 
24 26 
24 27 
24 28 
24 29 
24 30 
24 31 
24 32 
24 33 
24 34 
24 35 
24 36 
24 37 
24 38 
24 39 
24 40 
24 41 
24 42 
24 53 
24 60 
24 70 
24 74 
24 86 
24 89 
24 95 
24 97 
24 99 
25 26 
25 27 
25 28 
25 29 
25 30 
25 31 
25 32 
25 33 
25 34 
25 42 
25 43 
25 44 
25 45 
25 46 
25 47 
25 48 
25 49 
25 50 
25 64 
25 66 
25 72 
25 83 
25 91 
25 93 
25 95 
25 96 
26 27 
26 28 
26 29 
26 30 
26 31 
26 32 
26 33 
26 35 
26 42 
26 43 
26 50 
26 51 
26 52 
26 53 
26 54 
26 55 
26 56 
26 57 
26 63 
26 67 
26 73 
26 88 
26 94 
26 98 
26 99 
27 28 
27 29 
27 30 
27 31 
27 32 
27 33 
27 36 
27 38 
27 44 
27 55 
27 58 
27 59 
27 60 
27 61 
27 62 
27 63 
27 64 
27 69 
27 79 
27 82 
27 85 
27 91 
27 99 
27 100 
28 29 
28 30 
28 31 
28 32 
28 33 
28 38 
28 41 
28 46 
28 50 
28 52 
28 56 
28 58 
28 59 
28 65 
28 71 
28 72 
28 73 
28 74 
28 79 
28 84 
28 87 
28 92 
28 95 
29 30 
29 31 
29 32 
29 33 
29 36 
29 45 
29 49 
29 53 
29 57 
29 61 
29 65 
29 71 
29 75 
29 76 
29 77 
29 78 
29 79 
29 83 
29 89 
29 92 
29 98 
29 100 
30 31 
30 32 
30 33 
30 37 
30 39 
30 43 
30 47 
30 54 
30 60 
30 62 
30 67 
30 72 
30 75 
30 77 
30 80 
30 81 
30 82 
30 83 
30 84 
30 85 
30 89 
31 32 
31 33 
31 34 
31 35 
31 46 
31 56 
31 59 
31 61 
31 66 
31 68 
31 76 
31 77 
31 80 
31 81 
31 85 
31 86 
31 87 
31 88 
31 96 
31 97 
31 98 
32 33 
32 39 
32 41 
32 48 
32 49 
32 54 
32 55 
32 63 
32 64 
32 68 
32 71 
32 74 
32 78 
32 80 
32 82 
32 86 
32 90 
32 93 
32 94 
33 40 
33 44 
33 47 
33 52 
33 57 
33 69 
33 70 
33 75 
33 78 
33 84 
33 87 
33 88 
33 90 
33 93 
33 94 
33 96 
33 97 
33 100 
34 35 
34 36 
34 37 
34 38 
34 39 
34 40 
34 41 
34 42 
34 43 
34 44 
34 45 
34 46 
34 47 
34 48 
34 49 
34 50 
34 56 
34 59 
34 68 
34 77 
34 81 
34 96 
34 97 
34 98 
35 36 
35 37 
35 38 
35 39 
35 40 
35 41 
35 42 
35 43 
35 46 
35 51 
35 52 
35 53 
35 54 
35 55 
35 56 
35 57 
35 61 
35 66 
35 76 
35 80 
35 85 
35 86 
35 87 
35 88 
36 37 
36 38 
36 39 
36 40 
36 41 
36 42 
36 44 
36 45 
36 53 
36 58 
36 59 
36 60 
36 61 
36 62 
36 63 
36 64 
36 71 
36 75 
36 76 
36 77 
36 78 
36 79 
37 38 
37 39 
37 40 
37 41 
37 42 
37 43 
37 45 
37 51 
37 58 
37 60 
37 65 
37 66 
37 67 
37 68 
37 69 
37 70 
37 75 
37 80 
37 81 
37 82 
37 83 
37 84 
38 39 
38 40 
38 41 
38 42 
38 46 
38 52 
38 55 
38 59 
38 65 
38 69 
38 71 
38 72 
38 73 
38 74 
38 79 
38 82 
38 85 
38 91 
38 99 
38 100 
39 40 
39 41 
39 42 
39 47 
39 48 
39 54 
39 55 
39 62 
39 63 
39 67 
39 68 
39 72 
39 74 
39 77 
39 78 
39 80 
39 85 
39 89 
39 93 
40 41 
40 42 
40 47 
40 48 
40 51 
40 57 
40 62 
40 69 
40 73 
40 75 
40 76 
40 81 
40 87 
40 90 
40 91 
40 92 
40 93 
40 94 
40 97 
41 42 
41 49 
41 50 
41 54 
41 56 
41 58 
41 64 
41 71 
41 79 
41 82 
41 84 
41 86 
41 87 
41 90 
41 92 
41 94 
41 95 
42 50 
42 63 
42 64 
42 66 
42 67 
42 72 
42 73 
42 83 
42 88 
42 91 
42 93 
42 94 
42 95 
42 96 
42 98 
42 99 
43 44 
43 45 
43 46 
43 47 
43 48 
43 49 
43 50 
43 51 
43 52 
43 53 
43 54 
43 55 
43 56 
43 57 
43 60 
43 75 
43 80 
43 81 
43 82 
43 83 
43 84 
44 45 
44 46 
44 47 
44 48 
44 49 
44 50 
44 52 
44 58 
44 59 
44 60 
44 61 
44 62 
44 63 
44 64 
44 70 
44 78 
44 84 
44 88 
44 90 
44 96 
44 100 
45 46 
45 47 
45 48 
45 49 
45 50 
45 51 
45 53 
45 58 
45 65 
45 66 
45 67 
45 68 
45 69 
45 70 
45 71 
45 75 
45 76 
45 77 
45 78 
45 79 
46 47 
46 48 
46 49 
46 50 
46 52 
46 59 
46 61 
46 65 
46 66 
46 71 
46 72 
46 73 
46 74 
46 76 
46 80 
46 85 
46 86 
46 87 
46 88 
47 48 
47 49 
47 50 
47 54 
47 57 
47 62 
47 67 
47 69 
47 72 
47 75 
47 77 
47 85 
47 87 
47 89 
47 93 
47 94 
47 97 
48 49 
48 50 
48 51 
48 55 
48 62 
48 63 
48 68 
48 73 
48 74 
48 76 
48 78 
48 80 
48 81 
48 90 
48 91 
48 92 
48 93 
49 50 
49 54 
49 57 
49 61 
49 64 
49 65 
49 71 
49 82 
49 83 
49 86 
49 89 
49 90 
49 92 
49 94 
49 98 
49 100 
50 56 
50 58 
50 63 
50 67 
50 73 
50 79 
50 84 
50 87 
50 88 
50 92 
50 94 
50 95 
50 98 
50 99 
51 52 
51 53 
51 54 
51 55 
51 56 
51 57 
51 58 
51 62 
51 65 
51 66 
51 67 
51 68 
51 69 
51 70 
51 73 
51 76 
51 81 
51 90 
51 91 
51 92 
52 53 
52 54 
52 55 
52 56 
52 57 
52 59 
52 65 
52 70 
52 71 
52 72 
52 73 
52 74 
52 78 
52 84 
52 88 
52 90 
52 96 
52 100 
53 54 
53 55 
53 56 
53 57 
53 60 
53 70 
53 71 
53 74 
53 75 
53 76 
53 77 
53 78 
53 79 
53 86 
53 89 
53 95 
53 97 
53 99 
54 55 
54 56 
54 57 
54 62 
54 64 
54 67 
54 71 
54 72 
54 77 
54 82 
54 85 
54 86 
54 89 
54 90 
54 94 
55 56 
55 57 
55 63 
55 68 
55 69 
55 74 
55 78 
55 79 
55 80 
55 82 
55 85 
55 91 
55 93 
55 99 
55 100 
56 57 
56 58 
56 59 
56 68 
56 77 
56 79 
56 81 
56 84 
56 87 
56 92 
56 95 
56 96 
56 97 
56 98 
57 61 
57 65 
57 69 
57 75 
57 83 
57 87 
57 89 
57 92 
57 93 
57 94 
57 97 
57 98 
57 100 
58 59 
58 60 
58 61 
58 62 
58 63 
58 64 
58 65 
58 66 
58 67 
58 68 
58 69 
58 70 
58 79 
58 84 
58 87 
58 92 
58 95 
59 60 
59 61 
59 62 
59 63 
59 64 
59 65 
59 68 
59 71 
59 72 
59 73 
59 74 
59 77 
59 81 
59 96 
59 97 
59 98 
60 61 
60 62 
60 63 
60 64 
60 70 
60 74 
60 75 
60 80 
60 81 
60 82 
60 83 
60 84 
60 86 
60 89 
60 95 
60 97 
60 99 
61 62 
61 63 
61 64 
61 65 
61 66 
61 76 
61 80 
61 83 
61 85 
61 86 
61 87 
61 88 
61 89 
61 92 
61 98 
61 100 
62 63 
62 64 
62 67 
62 72 
62 73 
62 76 
62 77 
62 81 
62 85 
62 89 
62 90 
62 91 
62 92 
63 64 
63 67 
63 68 
63 73 
63 74 
63 78 
63 80 
63 88 
63 93 
63 94 
63 98 
63 99 
64 66 
64 71 
64 72 
64 82 
64 83 
64 86 
64 90 
64 91 
64 93 
64 94 
64 95 
64 96 
65 66 
65 67 
65 68 
65 69 
65 70 
65 71 
65 72 
65 73 
65 74 
65 83 
65 89 
65 92 
65 98 
65 100 
66 67 
66 68 
66 69 
66 70 
66 72 
66 76 
66 80 
66 83 
66 85 
66 86 
66 87 
66 88 
66 91 
66 93 
66 95 
66 96 
67 68 
67 69 
67 70 
67 72 
67 73 
67 77 
67 85 
67 88 
67 89 
67 94 
67 98 
67 99 
68 69 
68 70 
68 74 
68 77 
68 78 
68 80 
68 81 
68 93 
68 96 
68 97 
68 98 
69 70 
69 75 
69 79 
69 82 
69 85 
69 87 
69 91 
69 93 
69 94 
69 97 
69 99 
69 100 
70 74 
70 78 
70 84 
70 86 
70 88 
70 89 
70 90 
70 95 
70 96 
70 97 
70 99 
70 100 
71 72 
71 73 
71 74 
71 75 
71 76 
71 77 
71 78 
71 79 
71 82 
71 86 
71 90 
71 94 
72 73 
72 74 
72 77 
72 83 
72 85 
72 89 
72 91 
72 93 
72 95 
72 96 
73 74 
73 76 
73 81 
73 88 
73 90 
73 91 
73 92 
73 94 
73 98 
73 99 
74 78 
74 80 
74 86 
74 89 
74 93 
74 95 
74 97 
74 99 
75 76 
75 77 
75 78 
75 79 
75 80 
75 81 
75 82 
75 83 
75 84 
75 87 
75 93 
75 94 
75 97 
76 77 
76 78 
76 79 
76 80 
76 81 
76 85 
76 86 
76 87 
76 88 
76 90 
76 91 
76 92 
77 78 
77 79 
77 81 
77 85 
77 89 
77 96 
77 97 
77 98 
78 79 
78 80 
78 84 
78 88 
78 90 
78 93 
78 96 
78 100 
79 82 
79 84 
79 85 
79 87 
79 91 
79 92 
79 95 
79 99 
79 100 
80 81 
80 82 
80 83 
80 84 
80 85 
80 86 
80 87 
80 88 
80 93 
81 82 
81 83 
81 84 
81 90 
81 91 
81 92 
81 96 
81 97 
81 98 
82 83 
82 84 
82 85 
82 86 
82 90 
82 91 
82 94 
82 99 
82 100 
83 84 
83 89 
83 91 
83 92 
83 93 
83 95 
83 96 
83 98 
83 100 
84 87 
84 88 
84 90 
84 92 
84 95 
84 96 
84 100 
85 86 
85 87 
85 88 
85 89 
85 91 
85 99 
85 100 
86 87 
86 88 
86 89 
86 90 
86 94 
86 95 
86 97 
86 99 
87 88 
87 92 
87 93 
87 94 
87 95 
87 97 
88 90 
88 94 
88 96 
88 98 
88 99 
88 100 
89 92 
89 95 
89 97 
89 98 
89 99 
89 100 
90 91 
90 92 
90 94 
90 96 
90 100 
91 92 
91 93 
91 95 
91 96 
91 99 
91 100 
92 95 
92 98 
92 100 
93 94 
93 95 
93 96 
93 97 
94 97 
94 98 
94 99 
95 96 
95 97 
95 99 
96 97 
96 98 
96 100 
97 98 
97 99 
98 99 
98 100 
99 100 
